NAME : 21.77436.tour
COMMENT : Length = 77436
COMMENT : Found by LKH-3 [Keld Helsgaun] Thu Jun 19 18:16:34 2025
TYPE : TOUR
DIMENSION : 100
TOUR_SECTION
1
5
49
65
59
39
95
61
60
44
32
64
45
82
27
68
34
38
48
56
83
13
70
92
98
63
28
30
15
19
51
54
10
97
7
37
93
73
41
52
86
90
43
46
18
4
100
2
31
36
47
80
72
53
85
33
17
71
75
40
14
94
74
62
23
77
81
29
76
11
84
69
55
6
12
9
57
50
20
24
26
16
42
8
96
88
66
79
67
25
87
58
99
89
22
21
91
35
3
78
-1
EOF
